# Data for the maximizing-rent example given in class

set NODES := 1 2 3 4 5; 
set ARCS :=  (1,2) (1,3) (2,4) (2,5) (3,2) (3,4) (3,5) (4,5);

param: 	c :=	
1 2     2
1 3     2
2 4     4
2 5     3
3 2     4
3 4    -6
3 5     1
4 5     5;